benchmarks/bfuzz0/20150151502845768347530180372038413493.smt2
(set-logic QF_FP)
(declare-const x0 (_ FloatingPoint 8 24))
(declare-const x1 (_ FloatingPoint 8 24))
(declare-const x2 (_ FloatingPoint 8 24))
(declare-const x3 (_ FloatingPoint 8 24))
(declare-const x4 (_ FloatingPoint 8 24))
(declare-const x5 (_ FloatingPoint 8 24))
(declare-const x6 (_ FloatingPoint 8 24))
(declare-const x7 (_ FloatingPoint 8 24))
(declare-const x8 (_ FloatingPoint 8 24))
(declare-const x9 (_ FloatingPoint 8 24))
(declare-const x10 (_ FloatingPoint 8 24))
(declare-const x11 (_ FloatingPoint 8 24))
(declare-const x12 (_ FloatingPoint 8 24))
(declare-const x13 (_ FloatingPoint 8 24))
(assert (fp.geq (fp.neg x5) (fp.div RNE x4 x0)))
(assert (fp.geq (fp.neg x6) (fp.neg x9)))
(assert (fp.leq (fp.sub RNE x10 x7) (fp.neg x13)))
(assert (fp.leq (fp.add RNE x1 x9) (fp.neg x4)))
(check-sat)
