db/data/20150151502845768347530180372038413493.z3.out
sat
-------------------
3.388693214
